
--- Job 210106004.gms Start 11/22/24 16:30:33 47.6.0 c2de9d6d WEX-WEI x86 64bit/MS Windows
--- Applying:
    C:\GAMS\47\gmsprmNT.txt
--- GAMS Parameters defined
    Input C:\Users\CL-USER\Desktop\210106004\JSSP\210106004.gms
    PageSize 0
    ScrDir C:\Users\CL-USER\Desktop\210106004\JSSP\225a\
    SysDir C:\GAMS\47\
    LogOption 3
    ErrMsg 1
    ErrorLog 99
    IDE 1
    LstTitleLeftAligned 1
*** License has expired 26 days ago
Licensee: GAMS Demo, for EULA and demo limitations see   G240530/0001CB-GEN
          https://www.gams.com/latest/docs/UG%5FLicense.html         DC0000
          C:\GAMS\47\gamslice.txt
          Demo license for demonstration and instructional purposes only
Processor information: 1 socket(s), 6 core(s), and 6 thread(s) available
GAMS 47.6.0   Copyright (C) 1987-2024 GAMS Development. All rights reserved
--- Starting compilation
--- 210106004.gms(119) 3 Mb
--- Starting execution: elapsed 0:00:00.009
--- 210106004.gms(79) 4 Mb
--- Generating MIP model JSSP
--- 210106004.gms(119) 4 Mb
---   151 rows  71 columns  645 non-zeroes
---   63 discrete-columns
--- Range statistics (absolute non-zero finite values)
--- RHS       [min, max] : [ 1.000E+00, 1.000E+02] - Zero values observed as well
--- Bound     [min, max] : [ 1.000E+00, 1.000E+00] - Zero values observed as well
--- Matrix    [min, max] : [ 1.000E+00, 1.000E+02]
--- Executing CPLEX (Solvelink=2): elapsed 0:00:00.009

IBM ILOG CPLEX   47.6.0 c2de9d6d Sep 12, 2024          WEI x86 64bit/MS Window

*** This solver runs with a demo license. No commercial use.
--- GMO setup time: 0.00s
--- GMO memory 0.53 Mb (peak 0.53 Mb)
--- Dictionary memory 0.00 Mb
--- Cplex 22.1.1.0 link memory 0.00 Mb (peak 0.02 Mb)
--- Starting Cplex

Version identifier: 22.1.1.0 | 2022-11-27 | 9160aff4d
CPXPARAM_Advance                                 0
CPXPARAM_MIP_Display                             4
CPXPARAM_MIP_Pool_Capacity                       0
CPXPARAM_MIP_Tolerances_AbsMIPGap                0
Generic callback                                 0x50
Tried aggregator 2 times.
MIP Presolve eliminated 48 rows and 21 columns.
MIP Presolve modified 379 coefficients.
Aggregator did 1 substitutions.
Reduced MIP has 101 rows, 49 columns, and 345 nonzeros.
Reduced MIP has 44 binaries, 0 generals, 0 SOSs, and 0 indicators.
Presolve time = 0.00 sec. (0.89 ticks)
Found incumbent of value 61.000000 after 0.01 sec. (1.28 ticks)
Probing fixed 2 vars, tightened 0 bounds.
Probing time = 0.00 sec. (0.08 ticks)
Tried aggregator 1 time.
Detecting symmetries...
MIP Presolve eliminated 4 rows and 2 columns.
MIP Presolve modified 14 coefficients.
Reduced MIP has 97 rows, 47 columns, and 329 nonzeros.
Reduced MIP has 42 binaries, 0 generals, 0 SOSs, and 0 indicators.
Presolve time = 0.00 sec. (0.35 ticks)
Probing time = 0.00 sec. (0.07 ticks)
Clique table members: 78.
MIP emphasis: balance optimality and feasibility.
MIP search method: dynamic search.
Parallel mode: deterministic, using up to 6 threads.
Parallel mode: deterministic, using up to 1 threads for parallel tasks at root LP.
Tried aggregator 1 time.
No LP presolve or aggregator reductions.
Presolve time = 0.00 sec. (0.04 ticks)
Initializing dual steep norms . . .

Iteration log . . .
Iteration:     1   Dual objective     =            53.000000
Root relaxation solution time = 0.00 sec. (0.18 ticks)

        Nodes                                         Cuts/
   Node  Left     Objective  IInf  Best Integer    Best Bound    ItCnt     Gap

*     0+    0                           61.0000        7.0000            88.52%
Found incumbent of value 61.000000 after 0.01 sec. (2.12 ticks)
      0     0       57.3452    18       61.0000       57.3452       23    5.99%
      0     0       58.5000    10       61.0000      Cuts: 25       43    4.10%
      0     0       59.0000    19       61.0000      Cuts: 12       56    3.28%
*     0+    0                           60.0000       59.0000             1.67%
Found incumbent of value 60.000000 after 0.01 sec. (3.75 ticks)
      0     0       59.0000    12       60.0000       Cuts: 6       63    1.67%
      0     0       59.0000    13       60.0000      Cuts: 13       65    1.67%
      0     0       59.0000    19       60.0000       Cuts: 8       80    1.67%
Detecting symmetries...
      0     0        cutoff             60.0000       60.0000       80    0.00%
Elapsed time = 0.01 sec. (6.31 ticks, tree = 0.01 MB)

Clique cuts applied:  1
Implied bound cuts applied:  3
Zero-half cuts applied:  2
Gomory fractional cuts applied:  2

Root node processing (before b&c):
  Real time             =    0.01 sec. (6.31 ticks)
Parallel b&c, 6 threads:
  Real time             =    0.00 sec. (0.00 ticks)
  Sync time (average)   =    0.00 sec.
  Wait time (average)   =    0.00 sec.
                          ------------
Total (root+branch&cut) =    0.01 sec. (6.31 ticks)

--- MIP status (101): integer optimal solution.
--- Cplex Time: 0.01sec (det. 6.31 ticks)

--- Returning a primal only solution to GAMS (marginals all set to NA).
--- Fixing integer variables and solving final LP...

Version identifier: 22.1.1.0 | 2022-11-27 | 9160aff4d
CPXPARAM_Advance                                 2
CPXPARAM_MIP_Display                             4
CPXPARAM_MIP_Pool_Capacity                       0
CPXPARAM_MIP_Tolerances_AbsMIPGap                0
Tried aggregator 1 time.
LP Presolve eliminated 150 rows and 71 columns.
All rows and columns eliminated.
Presolve time = 0.00 sec. (0.06 ticks)

--- Fixed MIP status (1): optimal.
--- Cplex Time: 0.00sec (det. 0.12 ticks)


Proven optimal solution
MIP Solution:           60.000000    (80 iterations, 0 nodes)
Final Solve:            60.000000    (0 iterations)

Best possible:          60.000000
Absolute gap:            0.000000
Relative gap:            0.000000

--- Reading solution for model JSSP
*** Status: Normal completion
--- Job 210106004.gms Stop 11/22/24 16:30:33 elapsed 0:00:00.069
